(set-info :min-time 161.392213893)
; Start decls (53)
(declare-fun b10 () (_ FloatingPoint 8 24))
(declare-fun b101 () (_ FloatingPoint 8 24))
(declare-fun b104 () (_ FloatingPoint 8 24))
(declare-fun b107 () (_ FloatingPoint 8 24))
(declare-fun b11 () (_ FloatingPoint 8 24))
(declare-fun b110 () (_ FloatingPoint 8 24))
(declare-fun b113 () (_ FloatingPoint 8 24))
(declare-fun b116 () (_ FloatingPoint 8 24))
(declare-fun b119 () (_ FloatingPoint 8 24))
(declare-fun b122 () (_ FloatingPoint 8 24))
(declare-fun b125 () (_ FloatingPoint 8 24))
(declare-fun b128 () (_ FloatingPoint 8 24))
(declare-fun b131 () (_ FloatingPoint 8 24))
(declare-fun b134 () (_ FloatingPoint 8 24))
(declare-fun b137 () (_ FloatingPoint 8 24))
(declare-fun b14 () (_ FloatingPoint 8 24))
(declare-fun b140 () (_ FloatingPoint 8 24))
(declare-fun b143 () (_ FloatingPoint 8 24))
(declare-fun b146 () (_ FloatingPoint 8 24))
(declare-fun b149 () (_ FloatingPoint 8 24))
(declare-fun b152 () (_ FloatingPoint 8 24))
(declare-fun b155 () (_ FloatingPoint 8 24))
(declare-fun b158 () (_ FloatingPoint 8 24))
(declare-fun b161 () (_ FloatingPoint 8 24))
(declare-fun b17 () (_ FloatingPoint 8 24))
(declare-fun b20 () (_ FloatingPoint 8 24))
(declare-fun b23 () (_ FloatingPoint 8 24))
(declare-fun b26 () (_ FloatingPoint 8 24))
(declare-fun b269 () (_ FloatingPoint 8 24))
(declare-fun b29 () (_ FloatingPoint 8 24))
(declare-fun b32 () (_ FloatingPoint 8 24))
(declare-fun b35 () (_ FloatingPoint 8 24))
(declare-fun b38 () (_ FloatingPoint 8 24))
(declare-fun b41 () (_ FloatingPoint 8 24))
(declare-fun b44 () (_ FloatingPoint 8 24))
(declare-fun b47 () (_ FloatingPoint 8 24))
(declare-fun b50 () (_ FloatingPoint 8 24))
(declare-fun b53 () (_ FloatingPoint 8 24))
(declare-fun b56 () (_ FloatingPoint 8 24))
(declare-fun b59 () (_ FloatingPoint 8 24))
(declare-fun b62 () (_ FloatingPoint 8 24))
(declare-fun b65 () (_ FloatingPoint 8 24))
(declare-fun b68 () (_ FloatingPoint 8 24))
(declare-fun b71 () (_ FloatingPoint 8 24))
(declare-fun b74 () (_ FloatingPoint 8 24))
(declare-fun b77 () (_ FloatingPoint 8 24))
(declare-fun b80 () (_ FloatingPoint 8 24))
(declare-fun b83 () (_ FloatingPoint 8 24))
(declare-fun b86 () (_ FloatingPoint 8 24))
(declare-fun b89 () (_ FloatingPoint 8 24))
(declare-fun b92 () (_ FloatingPoint 8 24))
(declare-fun b95 () (_ FloatingPoint 8 24))
(declare-fun b98 () (_ FloatingPoint 8 24))
; End decls
; Start constraints (101)
(assert (fp.lt b11 b269))
(assert (let ((a!1 (fp.div roundNearestTiesToEven
                   (fp.div roundNearestTiesToEven
                           (fp.div roundNearestTiesToEven
                                   (fp.div roundNearestTiesToEven b10 b11)
                                   b14)
                           b17)
                   b20)))
(let ((a!2 (fp.div roundNearestTiesToEven
                   (fp.div roundNearestTiesToEven
                           (fp.div roundNearestTiesToEven
                                   (fp.div roundNearestTiesToEven a!1 b23)
                                   b26)
                           b29)
                   b32)))
(let ((a!3 (fp.div roundNearestTiesToEven
                   (fp.div roundNearestTiesToEven
                           (fp.div roundNearestTiesToEven
                                   (fp.div roundNearestTiesToEven a!2 b35)
                                   b38)
                           b41)
                   b44)))
(let ((a!4 (fp.div roundNearestTiesToEven
                   (fp.div roundNearestTiesToEven
                           (fp.div roundNearestTiesToEven
                                   (fp.div roundNearestTiesToEven a!3 b47)
                                   b50)
                           b53)
                   b56)))
(let ((a!5 (fp.div roundNearestTiesToEven
                   (fp.div roundNearestTiesToEven
                           (fp.div roundNearestTiesToEven
                                   (fp.div roundNearestTiesToEven a!4 b59)
                                   b62)
                           b65)
                   b68)))
(let ((a!6 (fp.div roundNearestTiesToEven
                   (fp.div roundNearestTiesToEven
                           (fp.div roundNearestTiesToEven
                                   (fp.div roundNearestTiesToEven a!5 b71)
                                   b74)
                           b77)
                   b80)))
(let ((a!7 (fp.div roundNearestTiesToEven
                   (fp.div roundNearestTiesToEven
                           (fp.div roundNearestTiesToEven
                                   (fp.div roundNearestTiesToEven a!6 b83)
                                   b86)
                           b89)
                   b92)))
(let ((a!8 (fp.div roundNearestTiesToEven
                   (fp.div roundNearestTiesToEven
                           (fp.div roundNearestTiesToEven
                                   (fp.div roundNearestTiesToEven a!7 b95)
                                   b98)
                           b101)
                   b104)))
(let ((a!9 (fp.div roundNearestTiesToEven
                   (fp.div roundNearestTiesToEven
                           (fp.div roundNearestTiesToEven
                                   (fp.div roundNearestTiesToEven a!8 b107)
                                   b110)
                           b113)
                   b116)))
(let ((a!10 (fp.div roundNearestTiesToEven
                    (fp.div roundNearestTiesToEven
                            (fp.div roundNearestTiesToEven
                                    (fp.div roundNearestTiesToEven a!9 b119)
                                    b122)
                            b125)
                    b128)))
(let ((a!11 (fp.div roundNearestTiesToEven
                    (fp.div roundNearestTiesToEven
                            (fp.div roundNearestTiesToEven
                                    (fp.div roundNearestTiesToEven a!10 b131)
                                    b134)
                            b137)
                    b140)))
(let ((a!12 (fp.div roundNearestTiesToEven
                    (fp.div roundNearestTiesToEven
                            (fp.div roundNearestTiesToEven
                                    (fp.div roundNearestTiesToEven a!11 b143)
                                    b146)
                            b149)
                    b152)))
  (fp.lt (fp.div roundNearestTiesToEven
                 (fp.div roundNearestTiesToEven a!12 b155)
                 b158)
         b161))))))))))))))
(assert (fp.leq b161 b11))
(assert (fp.lt b14 b269))
(assert (fp.leq b161 b14))
(assert (fp.lt b17 b269))
(assert (fp.leq b161 b17))
(assert (fp.lt b20 b269))
(assert (fp.leq b161 b20))
(assert (fp.lt b23 b269))
(assert (fp.leq b161 b23))
(assert (fp.lt b26 b269))
(assert (fp.leq b161 b26))
(assert (fp.lt b29 b269))
(assert (fp.leq b161 b29))
(assert (fp.lt b32 b269))
(assert (fp.leq b161 b32))
(assert (fp.lt b35 b269))
(assert (fp.leq b161 b35))
(assert (fp.lt b38 b269))
(assert (fp.leq b161 b38))
(assert (fp.lt b41 b269))
(assert (fp.leq b161 b41))
(assert (fp.lt b44 b269))
(assert (fp.leq b161 b44))
(assert (fp.lt b47 b269))
(assert (fp.leq b161 b47))
(assert (fp.lt b50 b269))
(assert (fp.leq b161 b50))
(assert (fp.lt b53 b269))
(assert (fp.leq b161 b53))
(assert (fp.lt b56 b269))
(assert (fp.leq b161 b56))
(assert (fp.lt b59 b269))
(assert (fp.leq b161 b59))
(assert (fp.lt b62 b269))
(assert (fp.leq b161 b62))
(assert (fp.lt b65 b269))
(assert (fp.leq b161 b65))
(assert (fp.lt b68 b269))
(assert (fp.leq b161 b68))
(assert (fp.lt b71 b269))
(assert (fp.leq b161 b71))
(assert (fp.lt b74 b269))
(assert (fp.leq b161 b74))
(assert (fp.lt b77 b269))
(assert (fp.leq b161 b77))
(assert (fp.lt b80 b269))
(assert (fp.leq b161 b80))
(assert (fp.lt b83 b269))
(assert (fp.leq b161 b83))
(assert (fp.lt b86 b269))
(assert (fp.leq b161 b86))
(assert (fp.lt b89 b269))
(assert (fp.leq b161 b89))
(assert (fp.lt b92 b269))
(assert (fp.leq b161 b92))
(assert (fp.lt b95 b269))
(assert (fp.leq b161 b95))
(assert (fp.lt b98 b269))
(assert (fp.leq b161 b98))
(assert (fp.lt b101 b269))
(assert (fp.leq b161 b101))
(assert (fp.lt b104 b269))
(assert (fp.leq b161 b104))
(assert (fp.lt b107 b269))
(assert (fp.leq b161 b107))
(assert (fp.lt b110 b269))
(assert (fp.leq b161 b110))
(assert (fp.lt b113 b269))
(assert (fp.leq b161 b113))
(assert (fp.lt b116 b269))
(assert (fp.leq b161 b116))
(assert (fp.lt b119 b269))
(assert (fp.leq b161 b119))
(assert (fp.lt b122 b269))
(assert (fp.leq b161 b122))
(assert (fp.lt b125 b269))
(assert (fp.leq b161 b125))
(assert (fp.lt b128 b269))
(assert (fp.leq b161 b128))
(assert (fp.lt b131 b269))
(assert (fp.leq b161 b131))
(assert (fp.lt b134 b269))
(assert (fp.leq b161 b134))
(assert (fp.lt b137 b269))
(assert (fp.leq b161 b137))
(assert (fp.lt b140 b269))
(assert (fp.leq b161 b140))
(assert (fp.lt b143 b269))
(assert (fp.leq b161 b143))
(assert (fp.lt b146 b269))
(assert (fp.leq b161 b146))
(assert (fp.lt b149 b269))
(assert (fp.leq b161 b149))
(assert (fp.lt b152 b269))
(assert (fp.leq b161 b152))
(assert (fp.lt b155 b269))
(assert (fp.leq b161 b155))
(assert (fp.lt b158 b269))
(assert (fp.leq b161 b158))
; End constraints
(check-sat)
